data/mip_solutions/furman_sahinidis/transshipment/7sp-cm1_cplex.sol
Elapsed time: 0.0202698707581
Nodes explored: 0
Upper bound: 10.0
Lower bound: 10.0
y[0,0]=1
y[0,1]=1
y[0,3]=1
y[1,0]=1
y[2,0]=1
y[2,1]=1
y[2,2]=1
y[2,3]=1
y[2,4]=1
y[3,0]=1
q[0,0,2]=229.832
q[0,0,3]=43.95
q[0,1,2]=37.178
q[0,3,2]=81.12
q[1,0,2]=269.652
q[1,0,3]=26.379
q[2,0,3]=80.43
q[2,1,3]=13.461
q[2,1,4]=69.228
q[2,2,5]=457.62
q[2,3,3]=35.49
q[2,3,4]=182.52
q[2,3,5]=106.47
q[2,3,6]=21.97
q[2,4,7]=110.986
q[3,0,1]=21.537
q[3,0,2]=160.984
r[0,2]=58.812
r[0,3]=43.95
r[2,5]=413.64
r[2,6]=132.956
r[2,7]=110.986
r[3,1]=182.521
r[3,2]=160.984
