data/mip_solutions/furman_sahinidis/transshipment/7sp-cm1_cplex.log

Log started (V12.6.3.0) Tue Jun  6 16:47:35 2017

New value for default parallel thread count: 1

Problem '/tmp/tmpRqqfZt.pyomo.lp' read.
Read time = 0.00 sec. (0.02 ticks)

Problem name         : /tmp/tmpRqqfZt.pyomo.lp
Objective sense      : Minimize
Variables            :     218  [Nneg: 197,  Binary: 20,  General Integer: 1]
Objective nonzeros   :       1
Linear constraints   :      96  [Less: 20,  Equal: 76]
  Nonzeros           :     588
  RHS nonzeros       :      22

Variables            : Min LB: 0.000000         Max UB: 1.000000       
Objective nonzeros   : Min   : 1.000000         Max   : 1.000000       
Linear constraints   :
  Nonzeros           : Min   : 1.000000         Max   : 457.6200       
  RHS nonzeros       : Min   : 1.000000         Max   : 665.3880       
Tried aggregator 3 times.
MIP Presolve eliminated 72 rows and 185 columns.
MIP Presolve added 1 rows and 1 columns.
MIP Presolve modified 6 coefficients.
Aggregator did 10 substitutions.
Reduced MIP has 15 rows, 24 columns, and 57 nonzeros.
Reduced MIP has 6 binaries, 1 generals, 0 SOSs, and 0 indicators.
Presolve time = 0.00 sec. (0.29 ticks)
Found incumbent of value 14.000000 after 0.00 sec. (0.35 ticks)
Probing time = 0.00 sec. (0.00 ticks)
Cover probing fixed 0 vars, tightened 1 bounds.
Tried aggregator 1 time.
Reduced MIP has 15 rows, 24 columns, and 57 nonzeros.
Reduced MIP has 6 binaries, 1 generals, 0 SOSs, and 0 indicators.
Presolve time = 0.00 sec. (0.03 ticks)
Probing time = 0.00 sec. (0.00 ticks)
MIP emphasis: balance optimality and feasibility.
MIP search method: dynamic search.
Parallel mode: none, using 1 thread.
Root relaxation solution time = 0.00 sec. (0.03 ticks)

        Nodes                                         Cuts/
   Node  Left     Objective  IInf  Best Integer    Best Bound    ItCnt     Gap

*     0+    0                           14.0000        9.0000            35.71%
      0     0        9.4298     3       14.0000        9.4298        7   32.64%
*     0+    0                           10.0000        9.4298             5.70%
      0     0        cutoff             10.0000        9.4298        7    5.70%
Elapsed time = 0.00 sec. (0.46 ticks, tree = 0.01 MB, solutions = 2)

Root node processing (before b&c):
  Real time             =    0.00 sec. (0.47 ticks)
Sequential b&c:
  Real time             =    0.00 sec. (0.00 ticks)
                          ------------
Total (root+branch&cut) =    0.00 sec. (0.47 ticks)

Solution pool: 2 solutions saved.

MIP - Integer optimal solution:  Objective =  1.0000000000e+01
Solution time =    0.00 sec.  Iterations = 7  Nodes = 0
Deterministic time = 0.47 ticks  (214.91 ticks/sec)


Incumbent solution written to file '/tmp/tmp9PXQZU.cplex.sol'.

Log started (V12.6.3.0) Mon Jul 24 16:46:05 2017

New value for default parallel thread count: 1

Problem '/tmp/tmpy1jG0l.pyomo.lp' read.
Read time = 0.00 sec. (0.02 ticks)

Problem name         : /tmp/tmpy1jG0l.pyomo.lp
Objective sense      : Minimize
Variables            :     218  [Nneg: 197,  Binary: 20,  General Integer: 1]
Objective nonzeros   :       1
Linear constraints   :      96  [Less: 20,  Equal: 76]
  Nonzeros           :     588
  RHS nonzeros       :      22

Variables            : Min LB: 0.000000         Max UB: 1.000000       
Objective nonzeros   : Min   : 1.000000         Max   : 1.000000       
Linear constraints   :
  Nonzeros           : Min   : 1.000000         Max   : 457.6200       
  RHS nonzeros       : Min   : 1.000000         Max   : 665.3880       
Tried aggregator 3 times.
MIP Presolve eliminated 72 rows and 185 columns.
MIP Presolve added 1 rows and 1 columns.
MIP Presolve modified 6 coefficients.
Aggregator did 10 substitutions.
Reduced MIP has 15 rows, 24 columns, and 57 nonzeros.
Reduced MIP has 6 binaries, 1 generals, 0 SOSs, and 0 indicators.
Presolve time = 0.00 sec. (0.29 ticks)
Found incumbent of value 14.000000 after 0.00 sec. (0.35 ticks)
Probing time = 0.00 sec. (0.00 ticks)
Cover probing fixed 0 vars, tightened 1 bounds.
Tried aggregator 1 time.
Reduced MIP has 15 rows, 24 columns, and 57 nonzeros.
Reduced MIP has 6 binaries, 1 generals, 0 SOSs, and 0 indicators.
Presolve time = 0.00 sec. (0.03 ticks)
Probing time = 0.00 sec. (0.00 ticks)
MIP emphasis: balance optimality and feasibility.
MIP search method: dynamic search.
Parallel mode: none, using 1 thread.
Root relaxation solution time = 0.00 sec. (0.03 ticks)

        Nodes                                         Cuts/
   Node  Left     Objective  IInf  Best Integer    Best Bound    ItCnt     Gap

*     0+    0                           14.0000        9.0000            35.71%
      0     0        9.4298     3       14.0000        9.4298        7   32.64%
*     0+    0                           10.0000        9.4298             5.70%
      0     0        cutoff             10.0000        9.4298        7    5.70%
Elapsed time = 0.00 sec. (0.46 ticks, tree = 0.01 MB, solutions = 2)

Root node processing (before b&c):
  Real time             =    0.00 sec. (0.47 ticks)
Sequential b&c:
  Real time             =    0.00 sec. (0.00 ticks)
                          ------------
Total (root+branch&cut) =    0.00 sec. (0.47 ticks)

Solution pool: 2 solutions saved.

MIP - Integer optimal solution:  Objective =  1.0000000000e+01
Solution time =    0.00 sec.  Iterations = 7  Nodes = 0
Deterministic time = 0.47 ticks  (250.31 ticks/sec)


Incumbent solution written to file '/tmp/tmpYomcaY.cplex.sol'.

Log started (V12.6.3.0) Mon Jul 24 16:58:59 2017

New value for default parallel thread count: 1

Problem '/tmp/tmpnEOT1J.pyomo.lp' read.
Read time = 0.00 sec. (0.02 ticks)

Problem name         : /tmp/tmpnEOT1J.pyomo.lp
Objective sense      : Minimize
Variables            :     218  [Nneg: 197,  Binary: 20,  General Integer: 1]
Objective nonzeros   :       1
Linear constraints   :      96  [Less: 20,  Equal: 76]
  Nonzeros           :     588
  RHS nonzeros       :      22

Variables            : Min LB: 0.000000         Max UB: 1.000000       
Objective nonzeros   : Min   : 1.000000         Max   : 1.000000       
Linear constraints   :
  Nonzeros           : Min   : 1.000000         Max   : 457.6200       
  RHS nonzeros       : Min   : 1.000000         Max   : 665.3880       
Tried aggregator 3 times.
MIP Presolve eliminated 72 rows and 185 columns.
MIP Presolve added 1 rows and 1 columns.
MIP Presolve modified 6 coefficients.
Aggregator did 10 substitutions.
Reduced MIP has 15 rows, 24 columns, and 57 nonzeros.
Reduced MIP has 6 binaries, 1 generals, 0 SOSs, and 0 indicators.
Presolve time = 0.00 sec. (0.29 ticks)
Found incumbent of value 14.000000 after 0.00 sec. (0.35 ticks)
Probing time = 0.00 sec. (0.00 ticks)
Cover probing fixed 0 vars, tightened 1 bounds.
Tried aggregator 1 time.
Reduced MIP has 15 rows, 24 columns, and 57 nonzeros.
Reduced MIP has 6 binaries, 1 generals, 0 SOSs, and 0 indicators.
Presolve time = 0.00 sec. (0.03 ticks)
Probing time = 0.00 sec. (0.00 ticks)
MIP emphasis: balance optimality and feasibility.
MIP search method: dynamic search.
Parallel mode: none, using 1 thread.
Root relaxation solution time = 0.00 sec. (0.03 ticks)

        Nodes                                         Cuts/
   Node  Left     Objective  IInf  Best Integer    Best Bound    ItCnt     Gap

*     0+    0                           14.0000        9.0000            35.71%
      0     0        9.4298     3       14.0000        9.4298        7   32.64%
*     0+    0                           10.0000        9.4298             5.70%
      0     0        cutoff             10.0000        9.4298        7    5.70%
Elapsed time = 0.00 sec. (0.46 ticks, tree = 0.01 MB, solutions = 2)

Root node processing (before b&c):
  Real time             =    0.00 sec. (0.47 ticks)
Sequential b&c:
  Real time             =    0.00 sec. (0.00 ticks)
                          ------------
Total (root+branch&cut) =    0.00 sec. (0.47 ticks)

Solution pool: 2 solutions saved.

MIP - Integer optimal solution:  Objective =  1.0000000000e+01
Solution time =    0.00 sec.  Iterations = 7  Nodes = 0
Deterministic time = 0.47 ticks  (201.10 ticks/sec)


Incumbent solution written to file '/tmp/tmpI8kHjL.cplex.sol'.

Log started (V12.6.3.0) Wed Jul 26 16:03:18 2017

New value for default parallel thread count: 1

Problem '/tmp/tmpUzl3jQ.pyomo.lp' read.
Read time = 0.00 sec. (0.02 ticks)

Problem name         : /tmp/tmpUzl3jQ.pyomo.lp
Objective sense      : Minimize
Variables            :     218  [Nneg: 197,  Binary: 20,  General Integer: 1]
Objective nonzeros   :       1
Linear constraints   :      96  [Less: 20,  Equal: 76]
  Nonzeros           :     588
  RHS nonzeros       :      22

Variables            : Min LB: 0.000000         Max UB: 1.000000       
Objective nonzeros   : Min   : 1.000000         Max   : 1.000000       
Linear constraints   :
  Nonzeros           : Min   : 1.000000         Max   : 457.6200       
  RHS nonzeros       : Min   : 1.000000         Max   : 665.3880       
Tried aggregator 3 times.
MIP Presolve eliminated 72 rows and 185 columns.
MIP Presolve added 1 rows and 1 columns.
MIP Presolve modified 6 coefficients.
Aggregator did 10 substitutions.
Reduced MIP has 15 rows, 24 columns, and 57 nonzeros.
Reduced MIP has 6 binaries, 1 generals, 0 SOSs, and 0 indicators.
Presolve time = 0.00 sec. (0.29 ticks)
Found incumbent of value 14.000000 after 0.00 sec. (0.35 ticks)
Probing time = 0.00 sec. (0.00 ticks)
Cover probing fixed 0 vars, tightened 1 bounds.
Tried aggregator 1 time.
Reduced MIP has 15 rows, 24 columns, and 57 nonzeros.
Reduced MIP has 6 binaries, 1 generals, 0 SOSs, and 0 indicators.
Presolve time = 0.00 sec. (0.03 ticks)
Probing time = 0.00 sec. (0.00 ticks)
MIP emphasis: balance optimality and feasibility.
MIP search method: dynamic search.
Parallel mode: none, using 1 thread.
Root relaxation solution time = 0.00 sec. (0.03 ticks)

        Nodes                                         Cuts/
   Node  Left     Objective  IInf  Best Integer    Best Bound    ItCnt     Gap

*     0+    0                           14.0000        9.0000            35.71%
      0     0        9.4298     3       14.0000        9.4298        7   32.64%
*     0+    0                           10.0000        9.4298             5.70%
      0     0        cutoff             10.0000        9.4298        7    5.70%
Elapsed time = 0.00 sec. (0.46 ticks, tree = 0.01 MB, solutions = 2)

Root node processing (before b&c):
  Real time             =    0.00 sec. (0.47 ticks)
Sequential b&c:
  Real time             =    0.00 sec. (0.00 ticks)
                          ------------
Total (root+branch&cut) =    0.00 sec. (0.47 ticks)

Solution pool: 2 solutions saved.

MIP - Integer optimal solution:  Objective =  1.0000000000e+01
Solution time =    0.00 sec.  Iterations = 7  Nodes = 0
Deterministic time = 0.47 ticks  (243.10 ticks/sec)


Incumbent solution written to file '/tmp/tmpV8wu0i.cplex.sol'.
